(set-logic UFLIA)
(declare-fun a () Bool)
(declare-fun b () Bool)
(declare-fun c () Bool)
(declare-fun x () Bool)
(declare-fun y () Bool)
(declare-fun z () Bool)
(assert (not (= (and a (and b c)) (and a b c))))
(check-sat)
(exit)
